
Gurobi 9.0.1 (linux64) logging started Thu Apr 30 05:58:08 2020

Gurobi Optimizer version 9.0.1 build v9.0.1rc0 (linux64)
Optimize a model with 2234 rows, 2120 columns and 20112 nonzeros
Model fingerprint: 0x967614df
Variable types: 0 continuous, 2120 integer (2106 binary)
Coefficient statistics:
  Matrix range     [1e+00, 7e+00]
  Objective range  [1e+00, 1e+02]
  Bounds range     [1e+00, 1e+00]
  RHS range        [1e+00, 1e+00]

User MIP start produced solution with objective 801 (0.01s)
Loaded user MIP start with objective 801

Presolve removed 1004 rows and 912 columns
Presolve time: 0.11s
Presolved: 1230 rows, 1208 columns, 11904 nonzeros
Variable types: 0 continuous, 1208 integer (1208 binary)

Root relaxation: objective 4.976042e+02, 684 iterations, 0.05 seconds

    Nodes    |    Current Node    |     Objective Bounds      |     Work
 Expl Unexpl |  Obj  Depth IntInf | Incumbent    BestBd   Gap | It/Node Time

     0     0  497.60417    0  196  801.00000  497.60417  37.9%     -    0s
     0     0  536.33073    0  280  801.00000  536.33073  33.0%     -    0s
     0     0  536.66206    0  273  801.00000  536.66206  33.0%     -    0s
     0     0  536.66306    0  275  801.00000  536.66306  33.0%     -    0s
     0     0  551.57387    0  273  801.00000  551.57387  31.1%     -    0s
     0     0  551.74876    0  275  801.00000  551.74876  31.1%     -    0s
     0     0  551.74876    0  277  801.00000  551.74876  31.1%     -    0s
     0     0  559.00129    0  295  801.00000  559.00129  30.2%     -    1s
     0     0  559.30234    0  302  801.00000  559.30234  30.2%     -    1s
     0     0  559.55946    0  299  801.00000  559.55946  30.1%     -    1s
     0     0  559.57116    0  307  801.00000  559.57116  30.1%     -    1s
     0     0  564.63690    0  313  801.00000  564.63690  29.5%     -    1s
     0     0  565.35835    0  323  801.00000  565.35835  29.4%     -    1s
     0     0  565.40906    0  314  801.00000  565.40906  29.4%     -    1s
     0     0  565.41819    0  313  801.00000  565.41819  29.4%     -    1s
     0     0  566.42725    0  320  801.00000  566.42725  29.3%     -    1s
     0     0  566.80894    0  317  801.00000  566.80894  29.2%     -    1s
     0     0  566.86186    0  319  801.00000  566.86186  29.2%     -    1s
     0     0  566.86313    0  320  801.00000  566.86313  29.2%     -    1s
     0     0  571.66459    0  301  801.00000  571.66459  28.6%     -    1s
     0     0  573.06185    0  317  801.00000  573.06185  28.5%     -    1s
     0     0  573.16516    0  315  801.00000  573.16516  28.4%     -    2s
     0     0  573.17274    0  318  801.00000  573.17274  28.4%     -    2s
     0     0  574.33939    0  319  801.00000  574.33939  28.3%     -    2s
     0     0  574.38375    0  316  801.00000  574.38375  28.3%     -    2s
     0     0  574.40815    0  318  801.00000  574.40815  28.3%     -    2s
     0     0  574.40815    0  315  801.00000  574.40815  28.3%     -    2s
     0     0  574.53463    0  199  801.00000  574.53463  28.3%     -    2s
     0     0  574.53463    0  268  801.00000  574.53463  28.3%     -    2s
     0     0  574.53463    0  270  801.00000  574.53463  28.3%     -    2s
     0     0  574.53463    0  269  801.00000  574.53463  28.3%     -    2s
     0     0  574.53463    0  270  801.00000  574.53463  28.3%     -    2s
     0     0  574.53463    0  289  801.00000  574.53463  28.3%     -    3s
     0     0  574.53463    0  293  801.00000  574.53463  28.3%     -    3s
     0     0  574.53463    0  297  801.00000  574.53463  28.3%     -    3s
     0     0  574.53463    0  302  801.00000  574.53463  28.3%     -    3s
     0     0  580.53539    0  307  801.00000  580.53539  27.5%     -    3s
     0     0  582.29893    0  314  801.00000  582.29893  27.3%     -    3s
     0     0  582.35504    0  327  801.00000  582.35504  27.3%     -    3s
     0     0  582.38290    0  321  801.00000  582.38290  27.3%     -    3s
     0     0  586.18477    0  325  801.00000  586.18477  26.8%     -    3s
     0     0  586.69825    0  328  801.00000  586.69825  26.8%     -    3s
     0     0  586.93554    0  331  801.00000  586.93554  26.7%     -    3s
     0     0  586.98672    0  339  801.00000  586.98672  26.7%     -    3s
     0     0  586.98916    0  341  801.00000  586.98916  26.7%     -    3s
     0     0  588.20453    0  329  801.00000  588.20453  26.6%     -    3s
     0     0  588.25753    0  333  801.00000  588.25753  26.6%     -    4s
     0     0  589.57506    0  327  801.00000  589.57506  26.4%     -    4s
     0     0  589.60268    0  331  801.00000  589.60268  26.4%     -    4s
     0     0  589.91969    0  324  801.00000  589.91969  26.4%     -    4s
     0     0  589.91969    0  324  801.00000  589.91969  26.4%     -    4s
     0     2  590.06183    0  323  801.00000  590.06183  26.3%     -    4s
     7     9  619.15905    4  278  801.00000  591.91863  26.1%   534    5s
H   84    66                     797.0000000  618.85774  22.4%   178    6s
*  238   138              29     741.0000000  619.15905  16.4%   123    9s
*  247   110              36     711.0000000  619.15905  12.9%   120    9s
*  298   116              14     705.0000000  619.95707  12.1%   117    9s
   301   117  660.96531    5  210  705.00000  625.07739  11.3%   119   10s
H  304    78                     680.0000000  625.62062  8.00%   118   10s
   644   119  646.32947   15  238  680.00000  639.76246  5.92%  97.8   15s
  1145    99  675.03105   13  192  680.00000  658.39014  3.18%  81.1   20s

Cutting planes:
  Gomory: 5
  Cover: 7
  MIR: 27
  StrongCG: 1
  Inf proof: 3
  Zero half: 47
  RLT: 93

Explored 1345 nodes (108569 simplex iterations) in 21.44 seconds
Thread count was 1 (of 40 available processors)

Solution count 6: 680 705 711 ... 801

Optimal solution found (tolerance 1.00e-04)
Best objective 6.800000000000e+02, best bound 6.800000000000e+02, gap 0.0000%

User-callback calls 6821, time in user-callback 0.01 sec
